8686
38, 5, 6, 4, 25, 46, 48, 24, 15, 43, 33, 51, 12, 28, 27, 13, 14, 52, 11, 26, 47, 29, 23, 31, 18, 3, 41, 8, 9, 10, 19, 45, 32, 49, 1, 22, 21, 17, 7, 2, 42, 30, 20, 50, 16, 44, 34, 36, 35, 39, 40, 37
